0000000000000000
0011111111111000
0011111111111000
0000000000011100
0000000000001110
0000000000001110
0000000000001110
0000000000001110
0000000000001110
0000000000001110
0000000000001110
0000000000001110
0111111111111100
0111111111111000
0000000000000000
0000000000000000
